!HF-3c CPCM KDIIS SmallPrint
%PAL NPROCS 15 END
%maxcore 10000
%CPCM
SMD TRUE
SMDSOLVENT "WATER"
END

%scf
SCFmode Direct
maxiter 10000

end

%geom

Constraints
{C 2 C}
{C 21 C}
{C 43 C}
{C 57 C}
{C 78 C}
{C 85 C}
{C 109 C}
{C 126 C}
{C 145 C}

end

maxiter 10000

end

* xyz 0 2
   N        0.00000         0.00000         0.00000
   C        1.46145         0.00000         0.00000
   C        1.94774         0.00000         1.45615
   O        1.18426         0.00000         2.41946
   C        2.04411         1.20336         -0.76878
   H        2.63381         1.85004         -0.10703
   H        1.24387         1.83827         -1.17112
   C        2.90609         0.76454         -1.90397
   N        2.40386         0.09306         -2.99477
   C        3.45453         -0.18863         -3.81870
   H        3.33445         -0.73115         -4.74678
   N        4.58505         0.27510         -3.33539
   C        4.25427         0.88487         -2.15432
   H        5.00749         1.36841         -1.54511
   H        1.43192         -0.17656         -3.13345
   H        -0.46323         0.13431         0.89571
   H        1.77077         -0.95781         -0.43895
   H        -0.34000         0.08381         -0.95801
   H        -0.34000         0.94706         -0.16699
   N        3.26069         -0.00000         1.72406
   C        3.72296         0.00022         3.10830
   C        5.25957         0.00016         3.05115
   O        5.89478         -0.00005         1.99805
   C        3.17221         -1.22220         3.85582
   C        3.49760         -1.23091         5.35214
   C        2.76820         -2.36936         6.07164
   C        3.16412         -2.43597         7.54599
   N        2.43343         -3.50207         8.21876
   H        3.37443         0.85767         3.64516
   H        3.56358         -2.10444         3.39388
   H        2.11168         -1.22213         3.71379
   H        3.21324         -0.29072         5.77650
   H        4.55447         -1.35132         5.46806
   H        3.00258         -3.29454         5.58790
   H        1.71448         -2.20937         5.97690
   H        2.94242         -1.49942         8.01356
   H        4.21673         -2.61502         7.61570
   H        2.75555         -3.57872         9.18352
   H        2.64374         -4.39381         7.77046
   H        1.43137         -3.32635         8.14527
   H        3.96942         -0.42893         1.12898
   N        5.97225         0.00033         4.18591
   C        7.43686         0.00004         4.13143
   C        7.91479         0.00034         5.59179
   O        7.14268         0.00074         6.54929
   C        9.48269         1.08418         3.03392
   C        7.99880         1.22002         3.36010
   O        7.33230         1.43157         2.10661
   H        9.81158         1.91465         2.39901
   H        9.67449         0.16510         2.46907
   H        10.10417         1.08183         3.93235
   H        7.84819         2.13313         3.94777
   H        7.74199         -0.93422         3.64476
   H        6.94471         0.58049         1.81203
   H        5.53694         0.37542         5.02463
   N        9.22610         0.00018         5.86761
   C        9.68073         0.00068         7.25676
   C        11.21840         0.00033         7.21732
   O        11.86053         -0.00027         6.16754
   C        9.14696         -1.22363         8.01899
   H        8.12037         -1.45560         7.70537
   H        9.73427         -2.11626         7.76553
   C        9.12910         -1.03111         9.51813
   C        10.10039         -1.63035         10.33138
   H        10.87443         -2.26067         9.89815
   C        10.08936         -1.42145         11.71089
   H        10.84387         -1.88358         12.34124
   C        9.10256         -0.62542         12.28014
   C        8.12385         -0.03027         11.49200
   H        7.34551         0.58793         11.92853
   C        8.13923         -0.23202         10.11064
   H        7.36969         0.23303         9.49455
   O        9.12905         -0.45172         13.63198
   H        8.35483         0.07480         13.89109
   H        9.34324         0.94010         7.71154
   H        9.89996         -0.27034         5.15588
   N        11.91794         0.00067         8.36023
   C        13.36421         0.00012         8.32314
   C        13.92229         0.00066         9.74279
   O        13.21817         0.00145         10.74955
   H        13.70249         -0.89627         7.79238
   H        13.70398         0.89272         7.79023
   H        11.46892         -0.00121         9.27170
   N        15.24744         0.00028         9.94178
   C        15.78160         0.00102         11.30059
   C        17.31494         0.00032         11.16245
   O        17.88736         -0.00067         10.07359
   C        15.27357         -1.22084         12.08038
   H        15.76336         -2.13174         11.71205
   H        14.20042         -1.35239         11.89295
   C        15.48666         -1.10499         13.58969
   H        15.10882         -0.14050         13.95079
   H        16.55582         -1.13557         13.82473
   C        14.78327         -2.23060         14.34107
   H        15.15599         -3.20891         14.02095
   H        13.70450         -2.19176         14.16403
   N        15.07027         -2.07737         15.76729
   H        16.03068         -1.87356         16.03216
   C        14.16426         -2.20754         16.76867
   N        14.32704         -2.10097         18.05957
   H        14.01440         -2.11799         19.03958
   H        15.25483         -1.87991         18.44533
   N        12.92752         -2.48444         16.71069
   H        12.46351         -2.65392         15.83708
   H        12.42037         -2.53327         17.58104
   H        15.88133         -0.26974         9.19353
   H        15.46335         0.93303         11.78259
   N        18.08636         0.00078         12.25813
   C        19.54192         -0.00011         12.12701
   C        20.15690         0.00069         13.53365
   O        19.48293         0.00187         14.56158
   C        20.05390         1.20233         11.30809
   H        20.70094         1.84915         11.91375
   H        19.22113         1.83742         10.97867
   C        20.81031         0.76214         10.10049
   N        20.21187         0.09015         9.05968
   C        21.18423         -0.19280         8.14504
   H        20.98107         -0.73594         7.23190
   N        22.35380         0.27061         8.52459
   C        22.13065         0.88146         9.73009
   H        22.93575         1.36500         10.26888
   H        19.23126         -0.17899         9.00899
   H        17.70544         0.13604         13.19169
   H        19.81009         -0.95844         11.66284
   N        21.48859         0.00009         13.68268
   C        22.07354         0.00107         15.02065
   C        23.60297         0.00004         14.83386
   O        24.14529         -0.00134         13.73000
   C        21.54507         -1.17677         15.88053
   C        22.02904         -1.07881         17.34210
   C        21.26472         -1.98837         18.29580
   H        21.79051         0.94994         15.49449
   C        21.88851         -2.54205         15.26797
   H        21.91339         -0.04728         17.69606
   H        23.09491         -1.32534         17.40863
   H        21.41796         -3.04480         18.05869
   H        20.19138         -1.77676         18.26393
   H        21.60999         -1.82758         19.32235
   H        22.05089         -0.39106         12.93205
   H        20.44888         -1.10089         15.89191
   H        21.39290         -3.35330         15.81003
   H        22.96599         -2.73369         15.29051
   H        21.55288         -2.60775         14.22796
   N        24.40872         0.00063         15.90455
   C        25.85735         -0.00057         15.72763
   C        26.46556         0.00053         17.13990
   O        25.78727         0.00211         18.16577
   C        26.29661         1.22081         14.90806
   C        27.78768         1.22835         14.55938
   C        28.12489         2.36568         13.59059
   C        29.62644         2.43119         13.31498
   N        29.92085         3.49620         12.36516
   H        26.19205         -0.85873         15.18317
   H        26.04798         2.10373         15.45901
   H        25.71294         1.22019         14.01128
   H        28.04830         0.28760         14.12126
   H        28.34627         1.34933         15.46395
   H        27.78919         3.29146         14.00908
   H        27.58677         2.20511         12.67980
   H        29.95299         1.49407         12.91489
   H        30.14150         2.61085         14.23549
   H        30.93050         3.57217         12.24172
   H        29.60680         4.38849         12.74673
   H        29.42410         3.31991         11.49192
   H        24.17587         0.43056         16.79973
   O        27.81412         -0.00032         17.22101
*
